185545
43,55,42,30,81,47,60,72,51,56,50,65,19,24,31,59,44,5,48,18,21,54,46,13,37,82,40,74,17,7,35,8,83,68,52,41,23,34,49,33,53,4,39,63,22,66,36,70,14,67,76,29,1,10,64,73,45,71,32,11,27,38,75,80,62,26,20,9,77,58,16,2,15,61,6,28,79,78,69,25,3,12,57,43